c t mc
c file mc2020_track1_019.cnf
p cnf 2553 1576
529 0
528 0
-506 0
161 0
-184 0
521 0
-34 0
-42 0
74 0
-132 0
207 0
228 0
-229 0
230 0
253 0
276 0
-299 0
261 0
262 0
-285 0
-308 0
-270 0
293 0
316 0
-317 0
339 0
-318 0
341 0
-364 0
-365 0
-295 0
-460 0
-509 0
510 0
-526 0
527 0
-24 0
-3 0
-6 0
-8 0
-9 0
-32 0
-10 0
-33 0
-11 0
-13 0
-36 0
-14 0
-37 0
-15 0
-38 0
-17 0
-19 0
-21 0
-22 0
-46 0
-23 0
-45 0
-29 0
-31 0
-67 0
-90 0
-70 0
-93 0
-116 0
-139 0
-162 0
-75 0
-80 0
-59 0
-82 0
-61 0
-86 0
-65 0
-91 0
-72 0
-88 0
-112 0
-97 0
-120 0
-103 0
-126 0
-104 0
-109 0
-133 0
-156 0
-134 0
-151 0
-138 0
-147 0
-155 0
-180 0
-181 0
-167 0
-208 0
-231 0
-254 0
-277 0
-210 0
-233 0
-191 0
-214 0
-237 0
-218 0
-200 0
-205 0
-206 0
-238 0
-220 0
-225 0
-250 0
-251 0
-252 0
-257 0
-236 0
-240 0
-263 0
-245 0
-246 0
-247 0
-269 0
-290 0
-291 0
-272 0
-294 0
-273 0
-296 0
-319 0
-343 0
-342 0
-366 0
-297 0
-281 0
-304 0
-283 0
-284 0
-309 0
-310 0
-301 0
-323 0
-324 0
-334 0
-322 0
-349 0
-352 0
-331 0
-353 0
-354 0
-376 0
-363 0
-1811 0
-367 0
-347 0
-369 0
-370 0
-393 0
-416 0
-439 0
-371 0
-357 0
-362 0
-385 0
-386 0
-387 0
-388 0
-395 0
-374 0
-407 0
-408 0
-415 0
-438 0
-461 0
-462 0
-484 0
-507 0
-422 0
-401 0
-424 0
-427 0
-434 0
-414 0
-418 0
-454 0
-441 0
-446 0
-473 0
-491 0
-514 0
-475 0
-500 0
-501 0
-483 0
-505 0
-508 0
-511 0
-512 0
-498 0
-522 0
-525 0
-516 0
-519 0
-469 0
-94 0
-117 0
-264 0
-351 0
-307 0
-177 0
-179 0
-465 0
-221 0
-189 0
-320 0
-372 0
-402 0
-100 0
-119 0
-73 0
-186 0
-54 0
-241 0
-39 0
-41 0
-51 0
-57 0
-69 0
-98 0
-115 0
-122 0
-131 0
-108 0
-137 0
-150 0
-159 0
-183 0
-201 0
-204 0
-209 0
-211 0
-213 0
-215 0
-217 0
-222 0
-226 0
-232 0
-258 0
-260 0
-268 0
-275 0
-289 0
-305 0
-338 0
-368 0
-375 0
-381 0
-412 0
-417 0
-426 0
-437 0
-444 0
-453 0
-482 0
-487 0
-489 0
-502 0
-504 0
-518 0
-524 0
-123 0
-129 0
-242 0
-503 0
-520 0
-328 0
-27 0
-92 0
-107 0
-249 0
-467 0
-486 0
-513 0
-145 0
-160 0
-202 0
-157 0
-405 0
-428 0
-383 0
146 144 124 -99 -121 0
-144 -121 166 -168 -99 0
2202 -394 -440 346 0
-2202 -394 440 346 0
2183 -435 -389 -411 0
-2183 435 -389 -411 0
-2126 -420 -398 421 0
2125 -420 397 419 0
-2125 420 397 419 0
2124 -420 -397 419 0
-2124 420 -397 419 0
2123 397 -419 -420 0
-2123 397 -419 420 0
2122 -397 -419 -420 0
-2122 -397 -419 420 0
-2159 429 382 406 0
2159 -429 382 406 0
-2160 429 -382 -406 0
2160 -429 -382 -406 0
2158 -429 382 -406 0
-442 -464 443 -466 0
442 464 443 -466 0
-2088 -361 411 -410 0
2088 -410 -411 -361 0
-2337 450 474 451 0
-2409 -492 493 470 0
2408 -492 -493 -470 0
1960 377 -355 -378 0
-1960 377 -355 378 0
1959 -377 355 -378 0
-1959 -377 355 378 0
1958 -377 -355 -378 0
-1958 -377 -355 378 0
1891 337 359 -360 0
-1891 337 359 360 0
2182 389 -435 -411 0
2127 -420 398 -421 0
-2161 429 -382 406 0
-2211 440 419 442 0
2210 440 -419 -442 0
-2210 440 -419 442 0
2209 -440 419 -442 0
-2209 -440 419 442 0
2208 -440 -419 -442 0
-2208 -440 -419 442 0
2203 394 -440 346 0
2126 -420 -421 -398 0
-851 95 48 -71 0
851 -95 48 -71 0
-852 95 -48 71 0
852 -95 -48 71 0
-853 95 -48 -71 0
853 -95 -48 -71 0
-878 -79 -101 102 0
878 -79 -101 -102 0
-879 102 79 -101 0
879 -102 79 -101 0
-880 102 -79 101 0
880 -79 -102 101 0
-881 101 79 102 0
881 101 -102 79 0
-894 -83 -105 106 0
894 -83 -105 -106 0
2091 -411 361 410 0
-2091 411 361 410 0
2090 410 -411 -361 0
-2090 -361 411 410 0
805 -83 60 58 0
-2158 429 382 -406 0
-2089 411 361 -410 0
2089 -411 361 -410 0
2137 -423 399 400 0
-2137 423 399 400 0
2136 -423 -400 399 0
-2136 423 -400 399 0
2135 -423 400 -399 0
-2135 423 400 -399 0
2134 -423 -400 -399 0
-2134 423 -400 -399 0
2129 420 398 -421 0
-2129 420 421 398 0
2128 420 -421 -398 0
-2128 420 421 -398 0
814 84 -85 -62 0
-815 84 62 85 0
815 84 62 -85 0
-850 95 48 71 0
850 -95 48 71 0
-943 95 118 71 0
-2127 -420 421 398 0
-2503 -515 494 517 0
2502 -517 -515 -494 0
-2502 517 -515 -494 0
2427 496 474 -497 0
2360 -457 479 -480 0
-2360 -457 479 480 0
2359 -479 457 -480 0
-895 83 -105 106 0
895 83 -105 -106 0
-896 -83 106 105 0
896 -83 -106 105 0
-897 83 106 105 0
897 83 -106 105 0
-914 111 -110 87 0
914 -110 87 -111 0
-804 83 58 -60 0
-2408 -492 493 -470 0
2365 458 480 -481 0
-2365 458 480 481 0
2364 -458 480 -481 0
-2364 -458 480 481 0
2363 -480 458 -481 0
2417 -495 -494 472 0
-2426 496 -474 497 0
2425 -497 474 -496 0
-2277 -458 436 459 0
2275 457 435 -458 0
2215 420 442 -443 0
2008 -344 389 -390 0
-2008 -344 389 390 0
2007 344 -389 -390 0
-2007 344 390 -389 0
2006 -344 -389 -390 0
-2006 -344 390 -389 0
2084 -410 361 -409 0
-2084 410 361 -409 0
2047 377 -400 399 0
-2047 377 400 399 0
2046 -377 -400 399 0
2505 515 494 -517 0
-2505 517 494 515 0
2504 -517 -494 515 0
-2504 517 -494 515 0
2503 -517 494 -515 0
-2163 -429 430 -384 0
2162 -429 384 -430 0
-2162 -429 430 384 0
2161 -429 -382 406 0
-2046 -377 400 399 0
2045 377 -400 -399 0
-2045 377 400 -399 0
2044 -377 -400 -399 0
-2044 -377 400 -399 0
2033 373 -397 -396 0
-2359 -479 457 480 0
2358 -480 -457 -479 0
-2358 -457 480 -479 0
2357 456 478 -479 0
-2357 456 478 479 0
2356 -456 478 -479 0
-2356 -456 478 479 0
2355 -479 -478 456 0
-2355 456 -478 479 0
2354 -479 -478 -456 0
-2354 -456 -478 479 0
2337 450 -474 451 0
-2363 -480 458 481 0
2362 -480 -458 -481 0
-2362 -480 -458 481 0
2361 -480 457 479 0
-2361 457 480 479 0
2021 348 346 -394 0
-2021 348 346 394 0
2009 344 -390 389 0
-2009 344 390 389 0
2173 409 431 -432 0
-2173 409 431 432 0
2172 -432 431 -409 0
-2172 432 431 -409 0
2171 -432 409 -431 0
-2171 432 409 -431 0
2170 -432 -409 -431 0
-2170 432 -409 -431 0
2165 429 -430 -384 0
-2165 430 -384 429 0
2164 429 384 -430 0
-2164 429 430 384 0
2163 -429 -430 -384 0
-312 266 288 311 0
142 -118 -141 -96 0
-95 -96 71 -50 0
638 -12 -40 16 0
-1195 136 182 158 0
-166 -188 -187 -212 0
-2203 394 440 346 0
-1416 239 -190 -216 0
-118 -142 141 -96 0
-390 413 -389 -411 0
-2182 389 435 -411 0
326 348 -396 373 0
-2033 373 397 -396 0
1890 -337 -360 359 0
-1890 -337 360 359 0
1889 -359 337 -360 0
-1889 -359 337 360 0
1888 -359 -360 -337 0
-1888 -359 360 -337 0
1887 336 358 -359 0
1886 -359 358 -336 0
1885 336 -359 -358 0
927 -113 68 -114 0
672 48 -26 -49 0
-673 48 26 49 0
673 48 -49 26 0
-686 53 -52 -30 0
686 -52 -53 -30 0
-687 53 -52 30 0
687 -52 -53 30 0
943 95 -118 71 0
-954 52 121 96 0
954 52 -121 96 0
-1014 -113 135 136 0
1013 113 -136 -135 0
-1013 113 136 -135 0
1012 -136 -135 -113 0
-1012 136 -135 -113 0
-1031 118 -140 141 0
1031 118 -140 -141 0
-1032 140 141 -118 0
1032 140 -141 -118 0
-1033 140 141 118 0
1033 140 -141 118 0
1043 -143 121 -144 0
326 373 348 350 0
1039 -143 -142 96 0
-1039 143 -142 96 0
1038 -143 -142 -96 0
-729 40 62 63 0
729 40 62 -63 0
-738 -43 64 66 0
-1044 143 -121 144 0
-1887 336 358 359 0
-1886 358 -336 359 0
738 -43 64 -66 0
-1030 -140 141 -118 0
1030 -141 -140 -118 0
1045 143 121 -144 0
1015 113 135 -136 0
-739 43 64 66 0
739 43 64 -66 0
-740 -43 66 -64 0
740 -66 -43 -64 0
239 -219 -195 243 0
-1038 143 -142 -96 0
-1885 336 359 -358 0
1884 -359 -358 -336 0
-1884 -336 359 -358 0
1871 -355 330 332 0
-1871 355 332 330 0
1966 -379 356 -380 0
-1966 380 356 -379 0
1961 377 355 -378 0
-1961 377 355 378 0
-1015 113 135 136 0
1014 -113 135 -136 0
1041 -143 142 96 0
1044 143 -121 -144 0
-1042 -143 -121 144 0
1042 -143 -121 -144 0
-1041 143 142 96 0
1040 -143 142 -96 0
-1040 143 142 -96 0
53 -30 -55 -7 0
-1045 143 121 144 0
-1646 298 227 274 0
-1043 -143 121 144 0
199 219 -198 -223 0
329 282 -330 -306 0
-282 -330 329 306 0
101 -99 -78 77 0
-705 58 56 -81 0
-239 -219 195 243 0
-929 113 68 114 0
929 113 68 -114 0
-940 118 -95 -71 0
940 -118 -95 -71 0
-941 95 118 -71 0
941 95 -118 -71 0
-942 118 -95 71 0
942 -118 -95 71 0
-667 25 -47 48 0
-326 350 -348 373 0
-1678 306 -280 282 0
298 -321 -271 274 0
-198 -219 244 243 0
804 -83 58 -60 0
-805 83 60 58 0
955 -52 -121 96 0
-806 83 -58 -60 0
806 -83 -58 -60 0
-807 83 -58 60 0
807 -83 -58 60 0
-808 -83 84 60 0
808 -83 -84 60 0
-809 -83 -60 84 0
809 -83 -60 -84 0
-810 83 60 84 0
810 83 60 -84 0
-811 83 -60 84 0
811 83 -60 -84 0
-812 -62 85 -84 0
812 -62 -84 -85 0
-813 -84 62 85 0
813 -84 62 -85 0
-814 -62 85 84 0
164 -187 -185 -163 0
53 -30 -76 -77 0
982 -105 127 -128 0
983 105 -128 127 0
95 96 71 -50 0
-927 -113 68 114 0
922 44 89 -113 0
-923 -44 89 113 0
926 -113 -68 -114 0
-926 -113 -68 114 0
923 -113 89 -44 0
-924 44 -89 113 0
924 44 -89 -113 0
-925 113 -89 -44 0
925 -113 -89 -44 0
667 25 -47 -48 0
-668 48 -25 47 0
668 -25 -48 47 0
-669 25 47 48 0
669 25 47 -48 0
-670 -26 -48 49 0
670 -26 -48 -49 0
-671 49 -48 26 0
-1495 259 -234 235 0
671 -49 -48 26 0
-448 403 449 -425 0
-672 48 49 -26 0
96 52 99 -76 0
442 -488 463 -485 0
-1479 187 255 185 0
77 -124 -121 -99 0
-7 -53 -30 55 0
199 -219 198 -223 0
40 -18 -64 -63 0
-421 -399 -445 443 0
403 -380 358 404 0
-326 -348 -396 373 0
403 -400 -380 -379 0
-380 403 379 400 0
-703 58 -56 -81 0
-53 -76 30 -77 0
-955 -52 121 96 0
-980 -127 -105 128 0
980 -105 -128 -127 0
-981 128 105 -127 0
981 105 -128 -127 0
-982 128 -105 127 0
-983 128 105 127 0
-922 113 89 44 0
-928 113 -68 114 0
928 113 -68 -114 0
778 52 -53 -76 0
-779 53 52 76 0
779 53 52 -76 0
-784 78 -77 -55 0
784 -55 -78 -77 0
-785 78 -77 55 0
785 55 -77 -78 0
-786 -55 78 77 0
786 -55 -78 77 0
-787 78 55 77 0
787 77 -78 55 0
-714 12 60 58 0
714 12 58 -60 0
-715 -12 60 58 0
715 -60 58 -12 0
-716 12 -58 60 0
716 12 -58 -60 0
-717 -12 -58 60 0
717 -12 -58 -60 0
-726 63 -40 -62 0
-727 -62 40 63 0
727 -62 -63 40 0
-728 62 -40 63 0
728 62 -40 -63 0
-688 53 52 -30 0
688 52 -53 -30 0
-689 53 52 30 0
689 52 -53 30 0
-636 12 40 16 0
636 12 -40 16 0
-638 -12 40 16 0
-666 48 -25 -47 0
666 -25 -48 -47 0
-741 43 66 -64 0
741 -66 43 -64 0
-749 44 -20 68 0
749 44 -20 -68 0
-776 -52 -53 76 0
776 -52 -53 -76 0
-777 53 76 -52 0
777 53 -52 -76 0
-778 76 -53 52 0
1171 -176 153 175 0
-1171 153 175 176 0
1169 -176 153 -175 0
-1169 153 -175 176 0
1168 -175 -153 -176 0
-1168 -175 -153 176 0
1155 149 171 -172 0
-1155 149 171 172 0
1154 -172 171 -149 0
1079 -152 -153 130 0
-1079 153 -152 130 0
1078 -152 -153 -130 0
-1078 153 -152 -130 0
1065 148 -149 102 0
-1065 148 149 102 0
1064 148 -149 -102 0
-1064 148 149 -102 0
1063 102 -149 -148 0
-1063 149 102 -148 0
1062 -102 -149 -148 0
-1062 149 -102 -148 0
1061 -148 125 146 0
726 -62 -40 -63 0
1059 -148 -146 125 0
-1059 148 -146 125 0
-1585 259 280 282 0
-1153 149 172 -171 0
1152 -171 -149 -172 0
-1152 -171 -149 172 0
1585 259 280 -282 0
1141 146 -168 -169 0
-1141 169 -168 146 0
1131 143 165 -166 0
-1131 143 165 166 0
1130 -143 165 -166 0
-1130 -143 165 166 0
1129 143 -165 -166 0
-1129 143 -165 166 0
1128 -143 -165 -166 0
1214 -165 -187 -188 0
-1214 -165 -187 188 0
1195 136 -182 158 0
1194 -136 -182 158 0
-1194 -136 182 158 0
-1170 176 -153 175 0
-1399 235 212 -234 0
1398 -235 -212 -234 0
-1398 235 -234 -212 0
1339 -195 196 -219 0
-1339 -195 196 219 0
101 -78 -77 99 0
1261 176 198 -199 0
-1261 176 198 199 0
1260 -176 198 -199 0
-1260 -176 198 199 0
1493 -259 234 235 0
-1493 235 259 234 0
1646 -298 227 274 0
1479 187 185 -255 0
1478 -255 185 -187 0
-1478 185 -187 255 0
1416 -239 -190 -216 0
-149 -173 -172 127 0
1414 -239 190 -216 0
-1414 239 190 -216 0
1239 -194 171 -193 0
-1233 192 -190 169 0
-1239 194 -193 171 0
1232 -192 -190 -169 0
1058 -148 -146 -125 0
-1058 148 -146 -125 0
-1128 -143 -165 166 0
1233 -192 -190 169 0
1127 -165 164 142 0
-1127 165 164 142 0
1126 -142 164 -165 0
-1126 -142 164 165 0
1125 142 -164 -165 0
-1125 142 -164 165 0
1124 -142 -164 -165 0
-1124 -142 -164 165 0
1119 -47 -163 140 0
-1119 163 -47 140 0
1081 130 -153 152 0
-1081 152 153 130 0
1080 -130 -153 152 0
-1080 152 153 -130 0
1170 -176 -153 175 0
-1401 235 212 234 0
1400 -235 -212 234 0
-1400 235 -212 234 0
1399 212 -235 -234 0
1678 -306 -280 282 0
-1571 -278 256 279 0
1555 -274 -227 -271 0
-1555 274 -271 -227 0
1554 -274 227 -271 0
-1554 274 227 -271 0
1553 -274 -227 271 0
-1553 274 -227 271 0
1552 -274 227 271 0
1792 -312 311 -335 0
-1792 -312 311 335 0
-1696 -288 311 -287 0
1784 -287 332 -333 0
-1784 333 -287 332 0
1696 -288 -311 -287 0
1833 -345 321 344 0
-1833 345 321 344 0
1832 -345 -321 344 0
-1832 345 -321 344 0
1831 -344 -345 321 0
-1831 345 321 -344 0
1830 -345 -321 -344 0
-1830 345 -321 -344 0
1829 -344 271 321 0
1523 -266 265 243 0
-1523 266 265 243 0
1522 -266 265 -243 0
-1522 266 265 -243 0
1521 -266 -265 243 0
-1521 266 -265 243 0
1520 -266 -265 -243 0
-1520 266 -265 -243 0
-1552 274 227 271 0
1495 235 -259 -234 0
-1666 303 302 -280 0
1666 -303 302 -280 0
1584 -259 280 -282 0
-1676 306 280 282 0
-1584 -259 280 282 0
1583 -282 259 -280 0
-1715 292 314 315 0
1714 -315 314 -292 0
-1714 315 -292 314 0
-1583 259 282 -280 0
1676 282 280 -306 0
1582 -259 -280 -282 0
-1582 -259 -280 282 0
1571 -278 256 -279 0
1704 -312 -267 -313 0
-1704 313 -267 -312 0
1699 -311 287 288 0
1761 326 -280 -327 0
-1761 326 -280 327 0
1760 326 280 -327 0
-1760 326 280 327 0
1759 -326 -280 -327 0
-1759 -326 -280 327 0
1758 -326 280 -327 0
-1758 -326 280 327 0
1757 303 325 -326 0
1756 -303 325 -326 0
-1756 -303 325 326 0
-1245 194 172 195 0
1245 194 172 -195 0
2264 -456 -455 -433 0
1754 -303 -326 -325 0
-1754 -303 326 -325 0
1753 -325 300 302 0
-1753 325 300 302 0
-1154 172 171 -149 0
-1699 311 287 288 0
1153 -171 149 -172 0
-1829 344 321 271 0
1828 -344 -321 271 0
-1828 344 -321 271 0
1827 -344 321 -271 0
-1827 344 321 -271 0
1826 -344 -321 -271 0
-1826 344 -321 -271 0
-1697 311 -287 288 0
1697 -311 -287 288 0
-1698 -288 287 311 0
1401 212 -235 234 0
1715 -315 314 292 0
-2213 420 -442 443 0
2322 -470 -448 -471 0
-2234 448 447 -425 0
2234 -448 447 -425 0
-2322 -470 -448 471 0
1713 -315 292 -314 0
-1713 315 292 -314 0
1712 -315 -314 -292 0
-1712 315 -314 -292 0
1707 312 267 -313 0
-1707 312 267 313 0
1706 312 -267 -313 0
-1706 312 -267 313 0
1705 -312 -313 267 0
-1705 313 -312 267 0
2213 420 -442 -443 0
-2214 -420 442 443 0
2214 -420 442 -443 0
-2290 392 -440 463 0
-2417 495 -494 472 0
-2215 420 442 443 0
-2279 458 436 459 0
1698 -288 -311 287 0
1755 303 -326 -325 0
-1755 303 -325 326 0
-2424 497 -474 -496 0
-2232 448 -425 -447 0
-2275 457 435 458 0
-2267 456 455 433 0
-1244 194 -172 195 0
1243 -194 172 -195 0
-1243 -194 172 195 0
2267 -456 455 433 0
1242 -194 -172 -195 0
2211 440 419 -442 0
-1242 -194 -172 195 0
-2212 -420 -442 443 0
2212 -420 -442 -443 0
1647 -298 -227 274 0
2291 392 440 -463 0
-2291 392 440 463 0
2290 392 -440 -463 0
321 274 -298 -271 0
2426 496 -474 -497 0
-2260 -432 -431 455 0
2251 429 451 -452 0
-2251 429 451 452 0
-2235 448 425 447 0
2235 -448 425 447 0
2315 515 -468 445 0
-2315 -515 -468 445 0
-2248 -429 -451 452 0
2248 -429 -451 -452 0
-2425 497 -496 474 0
-2249 452 -451 429 0
-2292 -392 -440 463 0
2292 -392 -440 -463 0
2293 -392 440 -463 0
-2293 -392 440 463 0
2274 457 -435 -458 0
-2274 457 -435 458 0
2273 -457 435 -458 0
-2273 -457 435 458 0
2272 -457 -435 -458 0
-2272 -457 -435 458 0
2325 448 470 -471 0
-1061 148 146 125 0
1060 -148 -125 146 0
-1060 148 -125 146 0
2232 -447 -425 -448 0
-2233 -447 425 448 0
2233 -447 425 -448 0
2323 448 -470 -471 0
-2323 448 -470 471 0
-1253 197 174 196 0
1253 174 196 -197 0
-1258 -176 -198 199 0
1258 -176 -198 -199 0
2409 -492 -493 470 0
-1259 176 -198 199 0
1259 176 -198 -199 0
-1215 165 -187 188 0
2261 -455 -431 432 0
1215 165 -187 -188 0
-1216 -165 187 188 0
1216 -165 187 -188 0
-2261 455 -431 432 0
2260 -455 -431 -432 0
282 -329 280 -306 0
2250 -452 451 -429 0
-2250 452 451 -429 0
-1217 165 187 188 0
2249 -452 -451 429 0
1217 165 187 -188 0
-2427 496 474 497 0
2527 499 477 -523 0
-2527 499 477 523 0
-1230 192 190 -169 0
1230 -169 190 -192 0
-1231 169 190 192 0
1231 169 190 -192 0
-1232 192 -190 -169 0
2266 -456 455 -433 0
-2266 456 455 -433 0
2411 470 -493 492 0
-2411 470 493 492 0
2265 -456 -455 433 0
-2265 433 -455 456 0
-1757 303 326 325 0
1244 194 -172 -195 0
-2325 448 470 471 0
2424 -497 -474 -496 0
2324 470 -448 -471 0
-2324 470 -448 471 0
-2264 456 -455 -433 0
2263 432 431 -455 0
-2263 432 431 455 0
-2410 -470 493 492 0
2410 -470 -493 492 0
-2262 -432 431 455 0
2262 -455 431 -432 0
306 282 280 329 0
-282 -327 329 -306 0
-282 -327 -329 306 0
306 -329 -280 -327 0
130 -106 -110 87 0
50 -4 -26 49 0
-5 -49 -28 50 0
-49 -50 -26 -4 0
49 -5 -28 -50 0
-306 -280 329 -327 0
-1647 298 -227 274 0
-203 -110 178 -224 0
219 244 198 0
53 7 55 0
703 -56 -58 0
223 -198 -219 0
619 12 -35 0
-650 -20 43 0
650 -20 -43 0
-651 43 20 0
-130 85 -154 0
-53 -55 30 0
-1600 -239 286 0
-535 4 -2 0
705 56 -58 0
1600 -239 -286 0
-1601 239 286 0
1601 239 -286 0
1543 -271 248 0
-1543 271 248 0
1542 -271 -248 0
-1542 271 -248 0
53 77 30 0
-197 -198 175 0
-306 -282 330 0
55 -7 56 0
-566 20 -18 0
336 -335 -313 0
530 -2 -1 0
360 337 -361 0
-344 -391 -390 0
531 1 -2 0
-397 398 373 0
174 -128 173 0
49 -50 26 0
43 -20 44 0
315 -337 361 0
-337 336 314 0
-314 -313 267 0
-531 1 2 0
-1679 -282 306 0
95 -96 -71 0
1679 -282 -306 0
95 -96 50 0
-450 404 449 0
705 81 56 0
-239 -243 -195 0
-99 -77 124 0
651 -43 20 0
53 30 55 0
239 -243 195 0
451 450 382 0
-244 219 -198 0
535 -4 -2 0
-110 203 224 0
-536 5 -4 0
536 -4 -5 0
567 -20 18 0
77 99 -101 0
-1667 303 280 0
1667 -303 280 0
-49 28 -50 0
-306 327 -329 0
-224 -248 244 0
455 -478 477 0
-2 -25 26 0
-1 -25 -2 0
-534 4 2 0
534 -4 2 0
326 327 -350 0
101 99 124 0
-1869 -330 355 0
-1967 380 -356 0
2317 515 468 0
-2317 -515 468 0
50 49 28 0
-287 288 -265 0
-66 -87 89 0
212 187 -188 0
618 -12 -35 0
163 -187 185 0
-445 -400 447 0
326 -348 -373 0
1664 -303 -302 0
-130 106 -128 0
-216 -190 -193 0
266 -244 -267 0
-618 -12 35 0
-62 -60 -12 0
476 474 430 0
-203 110 -111 0
-394 346 -419 0
1204 -185 47 0
-274 298 321 0
-265 -243 -195 0
-567 18 20 0
1834 -346 300 0
152 -175 -174 0
-432 -433 -410 0
-355 -333 356 0
-619 12 35 0
-244 267 -292 0
154 153 130 0
188 187 -234 0
326 396 -348 0
-496 -495 450 0
541 5 -7 0
-541 5 7 0
-380 358 -382 0
-326 348 -373 0
101 121 124 0
-1655 -185 300 0
-141 -163 164 0
-537 4 5 0
537 4 -5 0
-540 -5 7 0
-55 -53 7 0
540 -5 -7 0
431 477 -476 0
-84 -106 130 0
1648 -274 -298 0
481 459 -478 0
-406 404 382 0
-480 481 459 0
566 -20 -18 0
-227 203 -158 0
-87 66 -89 0
-106 -152 -128 0
-89 -135 -111 0
-1654 185 300 0
-397 398 329 0
4 -49 50 0
-550 12 7 0
550 -12 7 0
-271 -361 -389 0
118 142 141 0
499 497 476 0
-378 -379 356 0
142 96 141 0
-142 -141 96 0
-452 476 474 0
419 396 -346 0
394 396 419 0
-1205 185 -47 0
313 -335 -336 0
-403 -379 400 0
163 187 -185 0
-1204 47 185 0
-280 -279 -234 0
71 -48 -47 0
-1117 163 47 0
-315 -361 360 0
492 515 -468 0
-492 -515 -468 0
-492 515 468 0
492 -515 468 0
335 -356 -358 0
559 -16 12 0
-85 154 153 0
-559 12 16 0
-479 481 459 0
-87 -63 -64 0
327 -326 350 0
-327 -326 -350 0
2 -530 -1 0
71 140 -47 0
-224 -178 -223 0
452 -430 -476 0
-28 -7 -30 0
-1664 303 -302 0
-463 464 488 0
488 490 466 0
-173 -195 196 0
300 302 279 0
-345 -391 -390 0
188 -212 166 0
2014 -392 346 0
-2014 392 346 0
-288 287 -265 0
563 -16 -18 0
-563 -16 18 0
562 16 -18 0
-562 16 18 0
703 81 -56 0
464 488 485 0
158 227 203 0
-148 -170 171 0
-288 -287 265 0
-1648 -274 298 0
345 344 391 0
66 87 89 0
-265 219 -195 0
-66 -89 87 0
1655 -300 -185 0
-190 -188 -166 0
79 56 -78 0
-274 -298 -321 0
199 224 178 0
176 154 178 0
243 -219 265 0
-1835 346 -300 0
326 -327 350 0
457 456 411 0
1117 47 -163 0
-1118 163 -140 0
1118 -140 -163 0
77 -53 -30 0
1251 -196 -197 0
-62 -60 -16 0
-1252 197 -174 0
1252 -197 -174 0
2086 -410 409 0
1338 -219 -196 0
915 -87 -111 0
-2086 410 409 0
-915 111 -87 0
-1338 219 -196 0
1337 -219 195 0
-1337 219 195 0
-1494 259 -235 0
187 -163 185 0
212 166 -188 0
-1238 194 -171 0
-1241 194 193 0
-1417 239 216 0
1417 -239 216 0
-2015 392 -346 0
-203 -227 224 0
-1477 -185 255 0
1477 -255 -185 0
-266 -244 267 0
169 -1140 -146 0
1140 -169 -146 0
-456 457 -411 0
-1143 169 168 0
1143 -169 168 0
-95 50 96 0
-639 -16 40 0
2015 -392 -346 0
639 -16 -40 0
-1752 325 -302 0
1752 -325 -302 0
-747 68 -44 0
747 -68 -44 0
-748 68 20 0
748 -68 20 0
-558 -12 16 0
-457 -456 411 0
456 -457 -411 0
-463 -440 464 0
442 488 -464 0
-142 118 -141 0
916 110 -111 0
558 -16 -12 0
111 -916 110 0
-442 -488 -464 0
978 -127 102 0
-978 102 127 0
977 -127 -102 0
-977 -102 127 0
-1193 182 -158 0
1193 -182 -158 0
445 -468 466 0
-382 384 361 0
48 47 71 0
442 -464 466 0
953 -96 -121 0
-953 -96 121 0
321 298 271 0
-2023 394 -346 0
-2376 392 485 0
392 2376 -485 0
325 348 346 0
265 288 287 0
-266 244 -267 0
-551 12 -7 0
2020 -394 -348 0
-2020 394 -348 0
-449 472 -471 0
1968 -380 379 0
-1968 380 379 0
1967 -380 -356 0
2085 -410 -361 0
-2085 410 -361 0
2035 396 -397 0
-2526 523 -477 0
2526 -523 -477 0
-2529 523 -499 0
2529 -523 -499 0
-287 -195 -286 0
-2416 495 -472 0
2416 -495 -472 0
-515 470 447 0
-2419 495 494 0
2419 -495 494 0
2336 -451 -474 0
-2336 -451 474 0
2335 -450 -474 0
-2335 -450 474 0
1835 -300 -346 0
-2276 -458 -436 0
2277 -458 -459 0
-2278 458 -436 0
2279 458 -459 0
1241 -194 193 0
2201 -440 -346 0
-2201 440 -346 0
464 -442 466 0
359 380 382 0
359 -358 382 0
2184 -435 411 0
-2184 435 411 0
-1251 197 -196 0
-2035 396 397 0
2032 -397 -373 0
-2032 397 -373 0
2023 -394 -346 0
-2314 -515 -445 0
515 2314 -445 0
1870 -355 -332 0
-1870 355 -332 0
1869 -330 -355 0
4 49 -50 0
327 306 329 0
1956 -377 -330 0
-1956 377 -330 0
1955 -377 330 0
-244 -219 198 0
488 -442 464 0
664 1 -47 0
332 330 286 0
-665 -1 47 0
1573 278 -279 0
665 -1 -47 0
-52 -50 -28 0
-1573 279 278 0
336 313 335 0
-192 216 190 0
84 -130 -106 0
-1834 346 300 0
-278 255 -185 0
-85 -110 87 0
-192 -193 170 0
1205 -185 -47 0
102 105 -58 0
2379 -485 -392 0
-392 -2379 485 0
-1955 377 330 0
-321 -298 271 0
282 306 330 0
85 110 106 0
-203 227 -224 0
-95 96 -71 0
-255 256 -187 0
266 267 244 0
-430 384 -431 0
-400 -403 379 0
-400 -425 379 0
-435 436 -413 0
-406 -382 360 0
212 188 -166 0
48 -71 -47 0
1654 -300 185 0
-329 -398 -373 0
399 -398 330 0
1494 -259 -235 0
203 -110 -178 0
203 111 110 0
85 -130 110 0
490 -421 466 0
551 -12 -7 0
1238 -194 -171 0
-488 421 -490 0
493 471 -494 0
-169 146 170 0
158 -110 135 0
-49 50 26 0
2547 481 459 0
335 -336 -313 0
-1782 333 -332 0
-1785 333 287 0
1785 -333 287 0
1782 -333 -332 0
-1790 -311 335 0
1790 -311 -335 0
-326 348 396 0
-664 1 47 0
1570 -256 -279 0
16 12 62 0
-1570 279 -256 0
130 128 106 0
-1751 -300 325 0
47 -71 -48 0
1751 -325 -300 0
1793 312 -335 0
-1793 312 335 0
406 -360 -382 0
102 125 124 0
384 361 -409 0
-87 110 0
406 -404 0
-314 337 0
106 152 0
81 -35 0
188 190 0
234 -188 0
313 314 0
234 280 0
64 87 0
63 87 0
-96 -99 0
391 390 0
192 -216 0
50 52 0
-176 -178 0
413 -459 0
271 389 0
-379 425 0
-329 330 0
389 361 0
99 168 0
-144 -146 0
5 28 0
421 445 0
148 -171 0
-449 425 0
76 -99 0
-124 -146 0
-449 -403 0
152 128 0
448 -449 0
77 76 0
216 193 0
450 -404 0
435 -436 0
413 -436 0
-449 450 0
-171 170 0
28 30 0
-124 -125 0
168 144 0
478 -477 0
-244 248 0
-135 -158 0
380 -404 0
63 64 0
-199 -224 0
78 -79 0
-447 445 0
495 496 0
496 -450 0
396 -373 0
-447 400 0
-497 -499 0
-499 -476 0
-52 -99 0
515 -470 0
-447 -470 0
445 -443 0
471 -472 0
-43 -44 0
358 -335 0
223 -244 0
440 -464 0
-173 -174 0
399 445 0
187 -164 0
292 244 0
463 -464 0
168 121 0
18 64 0
398 -399 0
-330 -399 0
397 -398 0
-288 312 0
111 135 0
-359 -382 0
197 198 0
20 -44 0
174 175 0
60 62 0
409 -384 0
193 -170 0
390 -413 0
-40 64 0
223 224 0
432 433 0
433 410 0
333 -356 0
292 -267 0
-466 -490 0
431 -384 0
28 52 0
-55 -56 0
-178 -154 0
-127 173 0
149 173 0
-196 195 0
-256 255 0
172 173 0
219 -243 0
-325 -348 0
-266 312 0
234 -187 0
430 431 0
-311 312 0
-330 -332 0
380 -403 0
-300 -302 0
169 -170 0
-170 -146 0
389 -413 0
-451 -382 0
280 279 0
490 468 0
-124 -101 0
110 -158 0
-443 466 0
58 -105 0
-166 168 0
409 -361 0
468 -445 0
265 195 0
-360 361 0
-436 -459 0
-451 -450 0
163 -164 0
-346 -348 0
128 -174 0
-404 -358 0
-243 -244 0
-403 -404 0
78 -101 0
187 -256 0
358 356 0
-255 278 0
-125 -102 0
378 379 0
-356 379 0
89 135 0
121 -146 0
355 -356 0
-79 -56 0
-336 337 0
-361 -384 0
30 7 0
248 224 0
1 25 0
2 25 0
425 400 0
2 -26 0
25 -26 0
-419 -396 0
47 -140 0
-493 494 0
494 -471 0
-459 2546 0
-105 -102 0
2546 -481 0
-413 411 0
-472 449 0
-196 173 0
-332 -286 0
198 -175 0
-455 478 0
476 -477 0
-477 -431 0
175 -152 0
-474 -476 0
-56 7 0
185 278 0
-140 -71 0
-146 99 0
35 -58 0
-279 -302 0
286 287 0
-350 -373 0
-384 382 0
195 287 0
-267 314 0
190 166 0
141 -164 0
-153 -154 0
